results_rootrelaxation/bin012_090_023.srr.sol
solution status: optimal solution found
objective value:                                   33
_var685_                            0.666666666666667 	(obj:3)
_var705_                                            1 	(obj:1)
_var753_                            0.333333333333334 	(obj:4)
_var765_                            0.999999999999999 	(obj:3)
_var834_                                            1 	(obj:3)
_var835_                                            1 	(obj:2)
_var840_                            0.666666666666666 	(obj:2)
_var860_                            0.333333333333334 	(obj:4)
_var866_                            0.333333333333333 	(obj:3)
_var888_                            0.666666666666667 	(obj:3)
_var893_                            0.333333333333333 	(obj:3)
_var895_                            0.333333333333333 	(obj:5)
_var902_                            0.333333333333333 	(obj:4)
_var904_                            0.333333333333334 	(obj:2)
_var913_                            0.666666666666667 	(obj:4)
_var922_                            0.333333333333334 	(obj:4)
_var927_                            0.333333333333333 	(obj:4)
_var932_                            0.333333333333332 	(obj:4)
_var934_                            0.333333333333334 	(obj:3)
_var939_                            0.333333333333332 	(obj:4)
_var945_                            0.333333333333334 	(obj:4)
